208 207 206 205 200 199 198 197 196 195 194 209 210 211 212 213 214 215 216 217 223 224 222 221 220 218 219 193 192 191 190 226 225 189 227 228 229 230 231 233 232 234 235 236 237 240 239 238 246 247 245 244 243 242 241 248 249 250 251 252 254 253 255 256 257 260 261 259 258 300 299 262 263 264 265 266 298 297 296 295 294 293 270 268 267 271 269 272 273 274 275 292 291 290 289 288 276 277 278 279 282 281 280 287 286 285 284 283 334 335 336 337 338 339 333 332 331 330 340 341 342 343 344 345 346 364 365 368 369 370 367 366 329 328 327 326 325 324 323 322 316 314 315 374 373 372 371 396 395 375 376 377 378 379 380 381 447 446 448 449 442 443 444 445 431 382 386 387 388 389 390 392 391 393 394 397 398 399 400 404 406 407 408 405 409 385 383 384 410 411 412 356 402 403 401 360 359 358 361 363 362 347 348 350 349 357 355 354 353 352 351 415 416 414 413 417 418 419 420 421 422 423 424 425 426 427 428 429 430 432 433 434 435 436 437 438 454 455 456 457 458 459 460 463 462 461 452 453 439 440 441 450 451 311 310 312 313 305 318 317 321 320 319 306 304 303 301 302 508 507 506 307 308 309 505 504 503 502 498 501 500 499 497 496 464 465 469 468 467 466 571 572 573 0 1 2 3 4 5 6 7 8 9 10 11 16 15 14 13 12 23 22 24 21 20 19 18 17 568 569 570 474 473 472 471 470 495 494 524 525 493 492 491 490 526 523 522 521 520 518 519 517 516 515 514 513 509 510 511 512 527 528 529 530 531 532 533 489 488 534 536 535 487 486 485 484 483 481 482 475 476 480 479 477 478 539 537 538 540 176 177 178 187 188 186 185 184 183 182 179 181 180 169 171 170 172 175 174 173 108 109 107 542 541 543 544 547 546 545 548 549 560 561 562 563 564 565 566 567 27 26 25 28 29 31 30 32 33 34 35 36 37 38 40 41 39 42 43 49 48 47 44 45 46 91 92 93 94 95 96 97 98 99 100 101 552 553 554 555 556 557 558 559 550 551 102 103 104 105 106 117 123 122 121 120 118 119 73 74 77 78 88 89 90 87 86 85 84 51 50 52 54 53 55 56 83 82 57 58 59 60 81 80 79 62 61 63 64 76 75 72 71 65 66 67 68 70 69 124 125 126 127 128 129 137 138 139 140 141 144 143 142 151 150 149 152 148 147 146 145 158 136 135 134 133 132 130 131 114 116 115 110 111 112 113 161 160 155 156 159 157 153 154 162 168 163 167 166 164 165 201 202 204 203